5770        5759
5349        5345
5677        5623
5791        5732
5468        5431
5303        5246
5599        5523
5623        5556
5875        5779
5845        583081  7 43 79 27 66 27 92 29 87 57 67 95 10 84 25 96 27 35 59  1 55 30 78 29 76 39 10 89 77 49 56 52 43 37 22 85 61 49 82 49
